base_problem/simple.sol
Problem:    model
Rows:       154
Columns:    96 (32 integer, 32 binary)
Non-zeros:  360
Status:     INTEGER OPTIMAL
Objective:  user_cost = 54.5 (MINimum)

   No.   Row name        Activity     Lower bound   Upper bound
------ ------------    ------------- ------------- -------------
     1 user_cost                54.5                             
     2 build_or_not_build[a,a]
                                   0                           1 
     3 build_or_not_build[a,b]
                                   0                           1 
     4 build_or_not_build[a,c]
                                   1                           1 
     5 build_or_not_build[a,d]
                                   1                           1 
     6 build_or_not_build[b,a]
                                   0                           1 
     7 build_or_not_build[b,b]
                                   0                           1 
     8 build_or_not_build[b,c]
                                   0                           1 
     9 build_or_not_build[b,d]
                                   0                           1 
    10 build_or_not_build[c,a]
                                   1                           1 
    11 build_or_not_build[c,b]
                                   1                           1 
    12 build_or_not_build[c,c]
                                   0                           1 
    13 build_or_not_build[c,d]
                                   0                           1 
    14 build_or_not_build[d,a]
                                   0                           1 
    15 build_or_not_build[d,b]
                                   0                           1 
    16 build_or_not_build[d,c]
                                   0                           1 
    17 build_or_not_build[d,d]
                                   0                           1 
    18 constraint_y[a,a]
                                   0                          -0 
    19 constraint_y[a,b]
                                   0                          -0 
    20 constraint_y[a,c]
                                  -7                          -0 
    21 constraint_y[a,d]
                                  -4                          -0 
    22 constraint_y[b,a]
                                   0                          -0 
    23 constraint_y[b,b]
                                   0                          -0 
    24 constraint_y[b,c]
                                   0                          -0 
    25 constraint_y[b,d]
                                   0                          -0 
    26 constraint_y[c,a]
                                  -4                          -0 
    27 constraint_y[c,b]
                                   0                          -0 
    28 constraint_y[c,c]
                                   0                          -0 
    29 constraint_y[c,d]
                                   0                          -0 
    30 constraint_y[d,a]
                                   0                          -0 
    31 constraint_y[d,b]
                                   0                          -0 
    32 constraint_y[d,c]
                                   0                          -0 
    33 constraint_y[d,d]
                                   0                          -0 
    34 constraint_x[a,a]
                                   0                          -0 
    35 constraint_x[a,b]
                                   0                          -0 
    36 constraint_x[a,c]
                                   0                          -0 
    37 constraint_x[a,d]
                                   0                          -0 
    38 constraint_x[b,a]
                                   0                          -0 
    39 constraint_x[b,b]
                                   0                          -0 
    40 constraint_x[b,c]
                                   0                          -0 
    41 constraint_x[b,d]
                                   0                          -0 
    42 constraint_x[c,a]
                                   0                          -0 
    43 constraint_x[c,b]
                                  -7                          -0 
    44 constraint_x[c,c]
                                   0                          -0 
    45 constraint_x[c,d]
                                   0                          -0 
    46 constraint_x[d,a]
                                   0                          -0 
    47 constraint_x[d,b]
                                   0                          -0 
    48 constraint_x[d,c]
                                   0                          -0 
    49 constraint_x[d,d]
                                   0                          -0 
    50 satisfy_demand[a,a,b]
                                   4             4             = 
    51 satisfy_demand[a,c,d]
                                   0            -0             = 
    52 satisfy_demand[b,a,b]
                                  -4            -4             = 
    53 satisfy_demand[b,c,d]
                                   0            -0             = 
    54 satisfy_demand[c,a,b]
                                   0            -0             = 
    55 satisfy_demand[c,c,d]
                                   7             7             = 
    56 satisfy_demand[d,a,b]
                                   0            -0             = 
    57 satisfy_demand[d,c,d]
                                  -7            -7             = 
    58 respect_lmax                5                           5 
    59 positive_fi[a,a,a,b]
                                   0            -0               
    60 positive_fi[a,a,c,d]
                                   0            -0               
    61 positive_fi[a,b,a,b]
                                   0            -0               
    62 positive_fi[a,b,c,d]
                                   0            -0               
    63 positive_fi[a,c,a,b]
                                   4            -0               
    64 positive_fi[a,c,c,d]
                                   0            -0               
    65 positive_fi[a,d,a,b]
                                   0            -0               
    66 positive_fi[a,d,c,d]
                                   7            -0               
    67 positive_fi[b,a,a,b]
                                   0            -0               
    68 positive_fi[b,a,c,d]
                                   0            -0               
    69 positive_fi[b,b,a,b]
                                   0            -0               
    70 positive_fi[b,b,c,d]
                                   0            -0               
    71 positive_fi[b,c,a,b]
                                   0            -0               
    72 positive_fi[b,c,c,d]
                                   0            -0               
    73 positive_fi[b,d,a,b]
                                   0            -0               
    74 positive_fi[b,d,c,d]
                                   0            -0               
    75 positive_fi[c,a,a,b]
                                   0            -0               
    76 positive_fi[c,a,c,d]
                                   7            -0               
    77 positive_fi[c,b,a,b]
                                   0            -0               
    78 positive_fi[c,b,c,d]
                                   0            -0               
    79 positive_fi[c,c,a,b]
                                   0            -0               
    80 positive_fi[c,c,c,d]
                                   0            -0               
    81 positive_fi[c,d,a,b]
                                   0            -0               
    82 positive_fi[c,d,c,d]
                                   0            -0               
    83 positive_fi[d,a,a,b]
                                   0            -0               
    84 positive_fi[d,a,c,d]
                                   0            -0               
    85 positive_fi[d,b,a,b]
                                   0            -0               
    86 positive_fi[d,b,c,d]
                                   0            -0               
    87 positive_fi[d,c,a,b]
                                   0            -0               
    88 positive_fi[d,c,c,d]
                                   0            -0               
    89 positive_fi[d,d,a,b]
                                   0            -0               
    90 positive_fi[d,d,c,d]
                                   0            -0               
    91 positive_fn[a,a,a,b]
                                   0            -0               
    92 positive_fn[a,a,c,d]
                                   0            -0               
    93 positive_fn[a,b,a,b]
                                   0            -0               
    94 positive_fn[a,b,c,d]
                                   0            -0               
    95 positive_fn[a,c,a,b]
                                   0            -0               
    96 positive_fn[a,c,c,d]
                                   0            -0               
    97 positive_fn[a,d,a,b]
                                   0            -0               
    98 positive_fn[a,d,c,d]
                                   0            -0               
    99 positive_fn[b,a,a,b]
                                   0            -0               
   100 positive_fn[b,a,c,d]
                                   0            -0               
   101 positive_fn[b,b,a,b]
                                   0            -0               
   102 positive_fn[b,b,c,d]
                                   0            -0               
   103 positive_fn[b,c,a,b]
                                   0            -0               
   104 positive_fn[b,c,c,d]
                                   0            -0               
   105 positive_fn[b,d,a,b]
                                   0            -0               
   106 positive_fn[b,d,c,d]
                                   0            -0               
   107 positive_fn[c,a,a,b]
                                   0            -0               
   108 positive_fn[c,a,c,d]
                                   0            -0               
   109 positive_fn[c,b,a,b]
                                   4            -0               
   110 positive_fn[c,b,c,d]
                                   0            -0               
   111 positive_fn[c,c,a,b]
                                   0            -0               
   112 positive_fn[c,c,c,d]
                                   0            -0               
   113 positive_fn[c,d,a,b]
                                   0            -0               
   114 positive_fn[c,d,c,d]
                                   0            -0               
   115 positive_fn[d,a,a,b]
                                   0            -0               
   116 positive_fn[d,a,c,d]
                                   0            -0               
   117 positive_fn[d,b,a,b]
                                   0            -0               
   118 positive_fn[d,b,c,d]
                                   0            -0               
   119 positive_fn[d,c,a,b]
                                   0            -0               
   120 positive_fn[d,c,c,d]
                                   0            -0               
   121 positive_fn[d,d,a,b]
                                   0            -0               
   122 positive_fn[d,d,c,d]
                                   0            -0               
   123 respect_graph_x[a,a]
                                   0                          -0 
   124 respect_graph_x[a,b]
                                   0                          -0 
   125 respect_graph_x[a,c]
                                   0                           1 
   126 respect_graph_x[a,d]
                                   0                           1 
   127 respect_graph_x[b,a]
                                   0                          -0 
   128 respect_graph_x[b,b]
                                   0                          -0 
   129 respect_graph_x[b,c]
                                   0                           1 
   130 respect_graph_x[b,d]
                                   0                           1 
   131 respect_graph_x[c,a]
                                   0                           1 
   132 respect_graph_x[c,b]
                                   1                           1 
   133 respect_graph_x[c,c]
                                   0                          -0 
   134 respect_graph_x[c,d]
                                   0                          -0 
   135 respect_graph_x[d,a]
                                   0                           1 
   136 respect_graph_x[d,b]
                                   0                           1 
   137 respect_graph_x[d,c]
                                   0                          -0 
   138 respect_graph_x[d,d]
                                   0                          -0 
   139 respect_graph_y[a,a]
                                   0                          -0 
   140 respect_graph_y[a,b]
                                   0                          -0 
   141 respect_graph_y[a,c]
                                   1                           1 
   142 respect_graph_y[a,d]
                                   1                           1 
   143 respect_graph_y[b,a]
                                   0                          -0 
   144 respect_graph_y[b,b]
                                   0                          -0 
   145 respect_graph_y[b,c]
                                   0                           1 
   146 respect_graph_y[b,d]
                                   0                           1 
   147 respect_graph_y[c,a]
                                   1                           1 
   148 respect_graph_y[c,b]
                                   0                           1 
   149 respect_graph_y[c,c]
                                   0                          -0 
   150 respect_graph_y[c,d]
                                   0                          -0 
   151 respect_graph_y[d,a]
                                   0                           1 
   152 respect_graph_y[d,b]
                                   0                           1 
   153 respect_graph_y[d,c]
                                   0                          -0 
   154 respect_graph_y[d,d]
                                   0                          -0 

   No. Column name       Activity     Lower bound   Upper bound
------ ------------    ------------- ------------- -------------
     1 X[a,a]       *              0             0             1 
     2 X[a,b]       *              0             0             1 
     3 X[a,c]       *              0             0             1 
     4 X[a,d]       *              0             0             1 
     5 X[b,a]       *              0             0             1 
     6 X[b,b]       *              0             0             1 
     7 X[b,c]       *              0             0             1 
     8 X[b,d]       *              0             0             1 
     9 X[c,a]       *              0             0             1 
    10 X[c,b]       *              1             0             1 
    11 X[c,c]       *              0             0             1 
    12 X[c,d]       *              0             0             1 
    13 X[d,a]       *              0             0             1 
    14 X[d,b]       *              0             0             1 
    15 X[d,c]       *              0             0             1 
    16 X[d,d]       *              0             0             1 
    17 Y[a,a]       *              0             0             1 
    18 Y[a,b]       *              0             0             1 
    19 Y[a,c]       *              1             0             1 
    20 Y[a,d]       *              1             0             1 
    21 Y[b,a]       *              0             0             1 
    22 Y[b,b]       *              0             0             1 
    23 Y[b,c]       *              0             0             1 
    24 Y[b,d]       *              0             0             1 
    25 Y[c,a]       *              1             0             1 
    26 Y[c,b]       *              0             0             1 
    27 Y[c,c]       *              0             0             1 
    28 Y[c,d]       *              0             0             1 
    29 Y[d,a]       *              0             0             1 
    30 Y[d,b]       *              0             0             1 
    31 Y[d,c]       *              0             0             1 
    32 Y[d,d]       *              0             0             1 
    33 FI[a,b,a,a]                 0                             
    34 FI[a,b,a,b]                 0                             
    35 FI[a,b,a,c]                 4                             
    36 FI[a,b,a,d]                 0                             
    37 FI[a,b,b,a]                 0                             
    38 FI[a,b,b,b]                 0                             
    39 FI[a,b,b,c]                 0                             
    40 FI[a,b,b,d]                 0                             
    41 FI[a,b,c,a]                 0                             
    42 FI[a,b,c,b]                 0                             
    43 FI[a,b,c,c]                 0                             
    44 FI[a,b,c,d]                 0                             
    45 FI[a,b,d,a]                 0                             
    46 FI[a,b,d,b]                 0                             
    47 FI[a,b,d,c]                 0                             
    48 FI[a,b,d,d]                 0                             
    49 FI[c,d,a,a]                 0                             
    50 FI[c,d,a,b]                 0                             
    51 FI[c,d,a,c]                 0                             
    52 FI[c,d,a,d]                 7                             
    53 FI[c,d,b,a]                 0                             
    54 FI[c,d,b,b]                 0                             
    55 FI[c,d,b,c]                 0                             
    56 FI[c,d,b,d]                 0                             
    57 FI[c,d,c,a]                 7                             
    58 FI[c,d,c,b]                 0                             
    59 FI[c,d,c,c]                 0                             
    60 FI[c,d,c,d]                 0                             
    61 FI[c,d,d,a]                 0                             
    62 FI[c,d,d,b]                 0                             
    63 FI[c,d,d,c]                 0                             
    64 FI[c,d,d,d]                 0                             
    65 FN[a,b,a,a]                 0                             
    66 FN[a,b,a,b]                 0                             
    67 FN[a,b,a,c]                 0                             
    68 FN[a,b,a,d]                 0                             
    69 FN[a,b,b,a]                 0                             
    70 FN[a,b,b,b]                 0                             
    71 FN[a,b,b,c]                 0                             
    72 FN[a,b,b,d]                 0                             
    73 FN[a,b,c,a]                 0                             
    74 FN[a,b,c,b]                 4                             
    75 FN[a,b,c,c]                 0                             
    76 FN[a,b,c,d]                 0                             
    77 FN[a,b,d,a]                 0                             
    78 FN[a,b,d,b]                 0                             
    79 FN[a,b,d,c]                 0                             
    80 FN[a,b,d,d]                 0                             
    81 FN[c,d,a,a]                 0                             
    82 FN[c,d,a,b]                 0                             
    83 FN[c,d,a,c]                 0                             
    84 FN[c,d,a,d]                 0                             
    85 FN[c,d,b,a]                 0                             
    86 FN[c,d,b,b]                 0                             
    87 FN[c,d,b,c]                 0                             
    88 FN[c,d,b,d]                 0                             
    89 FN[c,d,c,a]                 0                             
    90 FN[c,d,c,b]                 0                             
    91 FN[c,d,c,c]                 0                             
    92 FN[c,d,c,d]                 0                             
    93 FN[c,d,d,a]                 0                             
    94 FN[c,d,d,b]                 0                             
    95 FN[c,d,d,c]                 0                             
    96 FN[c,d,d,d]                 0                             

Integer feasibility conditions:

KKT.PE: max.abs.err = 0.00e+00 on row 0
        max.rel.err = 0.00e+00 on row 0
        High quality

KKT.PB: max.abs.err = 0.00e+00 on row 0
        max.rel.err = 0.00e+00 on row 0
        High quality

End of output
